instances/instance_hard_0.dzn
num_days = 5;
num_time_slots = 60;
num_patients = 10;
num_visits = 4;
duration = [1, 2, 3, 1];
lab_names = ["Blood Sample", "TAC", "NMR", "Radiography"];
required = [| 0, 1, 0, 1 | 1, 0, 0, 0 | 0, 1, 0, 1 | 0, 0, 0, 1 | 1, 1, 0, 0 | 0, 0, 0, 1 | 0, 1, 1, 1 | 1, 1, 0, 0 | 1, 1, 1, 0 | 1, 0, 1, 0 |];