instances/instance_hard_0.lp
day(1..5).
time_slot(1..60).
patient(1..10).
visit(4, "Blood Sample").
duration(4, 1).
visit(2, "TAC").
duration(2, 2).
visit(3, "NMR").
duration(3, 3).
visit(1, "Radiography").
duration(1, 1).
required(1, 2).
required(1, 1).
required(2, 4).
required(3, 2).
required(3, 1).
required(4, 1).
required(5, 4).
required(5, 2).
required(6, 1).
required(7, 2).
required(7, 3).
required(7, 1).
required(8, 4).
required(8, 2).
required(9, 4).
required(9, 2).
required(9, 3).
required(10, 4).
required(10, 3).